25 40
1 2 3
1 6 2
2 3 3
2 7 1
3 4 4
3 8 2
4 5 5
4 9 2
5 10 1
6 7 2
6 11 3
7 8 5
7 12 2
8 9 4
8 13 5
9 10 2
9 14 5
10 15 3
11 12 5
11 16 5
12 13 2
12 17 4
13 14 1
13 18 3
14 15 5
14 19 3
15 20 5
16 17 4
16 21 3
17 18 2
17 22 5
18 19 4
18 23 4
19 20 2
19 24 2
20 25 1
21 22 5
22 23 3
23 24 1
24 25 4
